p cnf 295 825
a 1 2 3 4 5 6 7 8 9 10 11 12 13 15 16 17 18 19 20 21 22 23 24 25 26 27 28 29 30 31 32 33 34 35 36 37 39 40 41 42 43 44 46 48 49 50 51 52 53 54 55 56 57 58 0
e 14 38 45 47 59 60 61 62 63 64 65 66 67 68 69 70 71 72 73 74 75 76 77 78 79 80 81 82 83 84 85 86 87 88 89 90 91 92 93 94 95 96 97 98 99 100 101 102 103 104 105 106 107 108 109 110 111 112 113 114 115 116 117 118 119 120 121 122 123 124 125 126 127 128 129 130 131 132 133 134 135 136 137 138 139 140 141 142 143 144 145 146 147 148 149 150 151 152 153 154 155 156 157 158 159 160 161 162 163 164 165 166 167 168 169 170 171 172 173 174 175 176 177 178 179 180 181 182 183 184 185 186 187 188 189 190 191 192 193 194 195 196 197 198 199 200 201 202 203 204 205 206 207 208 209 210 211 212 213 214 215 216 217 218 219 220 221 222 223 224 225 226 227 228 229 230 231 232 233 234 235 236 237 238 239 240 241 242 243 244 245 246 247 248 249 250 251 252 253 254 255 256 257 258 259 260 261 262 263 264 265 266 267 268 269 270 271 272 273 274 275 276 277 278 279 280 281 282 283 284 285 286 287 288 289 290 291 292 293 294 295 0
-295 0
295 -176 0
295 -294 0
14 38 45 47 -293 294 0
293 -192 0
293 -202 0
293 -212 0
293 -216 0
293 -226 0
293 -236 0
293 -246 0
293 -250 0
293 -254 0
293 -264 0
293 -268 0
293 -272 0
293 -276 0
293 -280 0
293 -284 0
293 -288 0
293 -289 0
293 -290 0
293 -291 0
293 -292 0
-5 4 292 0
-4 6 291 0
-3 2 290 0
-2 1 289 0
-287 -286 -285 288 0
287 -193 0
287 -194 0
287 -237 0
287 -238 0
287 -44 0
287 -43 0
287 -42 0
287 -32 0
287 -30 0
287 -29 0
287 -27 0
286 -196 0
286 -240 0
286 -241 0
286 -197 0
286 -41 0
286 -40 0
286 -39 0
286 -23 0
286 -21 0
286 -20 0
286 -18 0
285 -199 0
285 -200 0
285 -243 0
285 -244 0
285 -37 0
285 -36 0
285 -35 0
285 -13 0
285 -11 0
285 -10 0
285 -8 0
-283 -282 -281 284 0
283 -233 0
283 -234 0
283 -243 0
283 -244 0
283 -46 0
283 -36 0
283 -35 0
283 -13 0
283 -12 0
283 -10 0
283 -8 0
282 -230 0
282 -231 0
282 -240 0
282 -241 0
282 -48 0
282 -40 0
282 -39 0
282 -23 0
282 -22 0
282 -20 0
282 -18 0
281 -227 0
281 -228 0
281 -237 0
281 -238 0
281 -49 0
281 -43 0
281 -42 0
281 -32 0
281 -31 0
281 -29 0
281 -27 0
-279 -278 -277 280 0
279 -233 0
279 -234 0
279 -187 0
279 -188 0
279 -50 0
279 -46 0
279 -36 0
279 -35 0
279 -13 0
279 -12 0
279 -10 0
278 -230 0
278 -231 0
278 -182 0
278 -183 0
278 -52 0
278 -48 0
278 -40 0
278 -39 0
278 -23 0
278 -22 0
278 -20 0
277 -227 0
277 -228 0
277 -177 0
277 -180 0
277 -54 0
277 -49 0
277 -43 0
277 -42 0
277 -32 0
277 -31 0
277 -29 0
-275 -274 -273 276 0
275 -261 0
275 -262 0
275 -233 0
275 -234 0
275 -56 0
275 -50 0
275 -46 0
275 -36 0
275 -13 0
275 -12 0
275 -7 0
274 -258 0
274 -259 0
274 -230 0
274 -231 0
274 -57 0
274 -52 0
274 -48 0
274 -40 0
274 -23 0
274 -22 0
274 -17 0
273 -255 0
273 -256 0
273 -227 0
273 -228 0
273 -58 0
273 -54 0
273 -49 0
273 -43 0
273 -32 0
273 -31 0
273 -26 0
-271 -270 -269 272 0
271 -223 0
271 -261 0
271 -262 0
271 -224 0
271 -56 0
271 -51 0
271 -50 0
271 -36 0
271 -35 0
271 -12 0
271 -11 0
270 -220 0
270 -258 0
270 -259 0
270 -221 0
270 -57 0
270 -53 0
270 -52 0
270 -40 0
270 -39 0
270 -22 0
270 -21 0
269 -217 0
269 -218 0
269 -255 0
269 -256 0
269 -58 0
269 -55 0
269 -54 0
269 -43 0
269 -42 0
269 -31 0
269 -30 0
-267 -266 -265 268 0
267 -261 0
267 -262 0
267 -199 0
267 -200 0
267 -56 0
267 -50 0
267 -36 0
267 -35 0
267 -13 0
267 -12 0
267 -11 0
266 -258 0
266 -259 0
266 -196 0
266 -197 0
266 -57 0
266 -52 0
266 -40 0
266 -39 0
266 -23 0
266 -22 0
266 -21 0
265 -255 0
265 -256 0
265 -193 0
265 -194 0
265 -58 0
265 -54 0
265 -43 0
265 -42 0
265 -32 0
265 -31 0
265 -30 0
-263 -260 -257 264 0
263 -261 0
263 -262 0
263 -189 0
263 -190 0
263 -56 0
263 -50 0
263 -35 0
263 -13 0
263 -12 0
263 -11 0
263 -9 0
-1 47 262 0
-5 -47 261 0
260 -258 0
260 -259 0
260 -184 0
260 -185 0
260 -57 0
260 -52 0
260 -39 0
260 -23 0
260 -22 0
260 -21 0
260 -19 0
-2 47 259 0
-4 -47 258 0
257 -255 0
257 -256 0
257 -178 0
257 -179 0
257 -58 0
257 -54 0
257 -42 0
257 -32 0
257 -31 0
257 -30 0
257 -28 0
-3 47 256 0
-6 -47 255 0
-253 -252 -251 254 0
253 -223 0
253 -243 0
253 -244 0
253 -224 0
253 -36 0
253 -35 0
253 -13 0
253 -12 0
253 -11 0
253 -10 0
253 -8 0
252 -220 0
252 -240 0
252 -241 0
252 -221 0
252 -40 0
252 -39 0
252 -23 0
252 -22 0
252 -21 0
252 -20 0
252 -18 0
251 -217 0
251 -218 0
251 -237 0
251 -238 0
251 -43 0
251 -42 0
251 -32 0
251 -31 0
251 -30 0
251 -29 0
251 -27 0
-249 -248 -247 250 0
249 -223 0
249 -187 0
249 -188 0
249 -224 0
249 -50 0
249 -37 0
249 -36 0
249 -35 0
249 -13 0
249 -11 0
249 -10 0
248 -220 0
248 -182 0
248 -183 0
248 -221 0
248 -52 0
248 -41 0
248 -40 0
248 -39 0
248 -23 0
248 -21 0
248 -20 0
247 -217 0
247 -218 0
247 -177 0
247 -180 0
247 -54 0
247 -44 0
247 -43 0
247 -42 0
247 -32 0
247 -30 0
247 -29 0
-245 -242 -239 246 0
245 -189 0
245 -190 0
245 -243 0
245 -244 0
245 -13 0
245 -12 0
245 -11 0
245 -10 0
245 -9 0
245 -8 0
245 -7 0
-1 14 244 0
-5 -14 243 0
242 -184 0
242 -185 0
242 -240 0
242 -241 0
242 -23 0
242 -22 0
242 -21 0
242 -20 0
242 -19 0
242 -18 0
242 -17 0
-2 14 241 0
-4 -14 240 0
239 -178 0
239 -179 0
239 -237 0
239 -238 0
239 -32 0
239 -31 0
239 -30 0
239 -29 0
239 -28 0
239 -27 0
239 -26 0
-3 14 238 0
-6 -14 237 0
-235 -232 -229 236 0
235 -209 0
235 -210 0
235 -233 0
235 -234 0
235 -50 0
235 -46 0
235 -37 0
235 -36 0
235 -35 0
235 -13 0
235 -10 0
-15 47 234 0
-16 -47 233 0
232 -206 0
232 -207 0
232 -230 0
232 -231 0
232 -52 0
232 -48 0
232 -41 0
232 -40 0
232 -39 0
232 -23 0
232 -20 0
-24 47 231 0
-25 -47 230 0
229 -203 0
229 -227 0
229 -228 0
229 -204 0
229 -54 0
229 -49 0
229 -44 0
229 -43 0
229 -42 0
229 -32 0
229 -29 0
-33 47 228 0
-34 -47 227 0
-225 -222 -219 226 0
225 -209 0
225 -210 0
225 -223 0
225 -224 0
225 -50 0
225 -36 0
225 -13 0
225 -12 0
225 -11 0
225 -10 0
225 -7 0
-16 -45 224 0
-15 45 223 0
222 -206 0
222 -207 0
222 -220 0
222 -221 0
222 -52 0
222 -40 0
222 -23 0
222 -22 0
222 -21 0
222 -20 0
222 -17 0
-25 -45 221 0
-24 45 220 0
219 -203 0
219 -217 0
219 -218 0
219 -204 0
219 -54 0
219 -43 0
219 -32 0
219 -31 0
219 -30 0
219 -29 0
219 -26 0
-33 45 218 0
-34 -45 217 0
-215 -214 -213 216 0
215 -209 0
215 -210 0
215 -199 0
215 -200 0
215 -51 0
215 -50 0
215 -36 0
215 -35 0
215 -12 0
215 -11 0
215 -10 0
214 -206 0
214 -207 0
214 -196 0
214 -197 0
214 -53 0
214 -52 0
214 -40 0
214 -39 0
214 -22 0
214 -21 0
214 -20 0
213 -203 0
213 -193 0
213 -194 0
213 -204 0
213 -55 0
213 -54 0
213 -43 0
213 -42 0
213 -31 0
213 -30 0
213 -29 0
-211 -208 -205 212 0
211 -209 0
211 -210 0
211 -189 0
211 -190 0
211 -50 0
211 -35 0
211 -13 0
211 -12 0
211 -11 0
211 -10 0
211 -9 0
-1 45 210 0
-5 -45 209 0
208 -206 0
208 -207 0
208 -184 0
208 -185 0
208 -52 0
208 -39 0
208 -23 0
208 -22 0
208 -21 0
208 -20 0
208 -19 0
-2 45 207 0
-4 -45 206 0
205 -203 0
205 -178 0
205 -179 0
205 -204 0
205 -54 0
205 -42 0
205 -32 0
205 -31 0
205 -30 0
205 -29 0
205 -28 0
-6 -45 204 0
-3 45 203 0
-201 -198 -195 202 0
201 -199 0
201 -200 0
201 -187 0
201 -188 0
201 -50 0
201 -36 0
201 -13 0
201 -12 0
201 -11 0
201 -10 0
201 -7 0
-16 -38 200 0
-15 38 199 0
198 -196 0
198 -182 0
198 -183 0
198 -197 0
198 -52 0
198 -40 0
198 -23 0
198 -22 0
198 -21 0
198 -20 0
198 -17 0
-25 -38 197 0
-24 38 196 0
195 -193 0
195 -194 0
195 -177 0
195 -180 0
195 -54 0
195 -43 0
195 -32 0
195 -31 0
195 -30 0
195 -29 0
195 -26 0
-34 -38 194 0
-33 38 193 0
-191 -186 -181 192 0
191 -187 0
191 -188 0
191 -189 0
191 -190 0
191 -51 0
191 -50 0
191 -35 0
191 -12 0
191 -11 0
191 -10 0
191 -9 0
-15 14 190 0
-14 -16 189 0
-5 -38 188 0
-1 38 187 0
186 -182 0
186 -183 0
186 -184 0
186 -185 0
186 -53 0
186 -52 0
186 -39 0
186 -22 0
186 -21 0
186 -20 0
186 -19 0
-24 14 185 0
-14 -25 184 0
-4 -38 183 0
-2 38 182 0
181 -177 0
181 -178 0
181 -179 0
181 -180 0
181 -55 0
181 -54 0
181 -42 0
181 -31 0
181 -30 0
181 -29 0
181 -28 0
-6 -38 180 0
-33 14 179 0
-14 -34 178 0
-3 38 177 0
-175 -174 -173 -172 -171 -167 -163 -159 -155 -151 -147 -137 -133 -129 -125 -115 -105 -95 -85 -75 -59 176 0
175 5 0
175 -4 0
174 4 0
174 -6 0
173 3 0
173 -2 0
172 2 0
172 -1 0
171 -168 0
171 -169 0
171 -170 0
13 8 11 10 35 37 36 -63 -62 -107 -106 170 0
23 21 20 18 39 40 41 -110 -68 -67 -109 169 0
32 30 29 27 43 44 42 -73 -72 -113 -112 168 0
167 -164 0
167 -165 0
167 -166 0
28 31 30 29 54 55 42 -83 -123 -122 -82 166 0
22 21 20 19 39 53 52 -120 -119 -80 -79 165 0
9 12 11 10 35 50 51 -117 -116 -77 -76 164 0
163 -160 0
163 -161 0
163 -162 0
32 31 30 29 26 54 43 -83 -113 -112 -82 162 0
23 22 21 20 17 52 40 -110 -109 -80 -79 161 0
13 7 12 11 10 36 50 -107 -106 -77 -76 160 0
159 -156 0
159 -157 0
159 -158 0
28 32 31 30 29 54 42 -145 -123 -122 -144 158 0
23 22 21 20 19 39 52 -120 -119 -142 -141 157 0
13 9 12 11 10 35 50 -117 -116 -139 -138 156 0
155 -152 0
155 -153 0
155 -154 0
31 30 29 54 55 43 42 -145 -113 -112 -144 154 0
22 21 20 39 53 52 40 -110 -109 -142 -141 153 0
12 11 10 35 36 50 51 -107 -106 -139 -138 152 0
151 -148 0
151 -149 0
151 -150 0
32 31 30 29 26 54 43 -145 -144 -103 -102 150 0
23 22 21 20 17 52 40 -100 -142 -141 -99 149 0
13 7 12 11 10 36 50 -97 -139 -138 -96 148 0
147 -140 0
147 -143 0
147 -146 0
32 29 54 49 43 44 42 -145 -144 -71 -70 146 0
145 45 0
145 6 0
144 -45 0
144 3 0
23 20 39 52 48 40 41 -142 -141 -66 -65 143 0
142 45 0
142 4 0
141 -45 0
141 2 0
13 10 35 37 36 50 46 -139 -138 -61 -60 140 0
139 45 0
139 5 0
138 -45 0
138 1 0
137 -134 0
137 -135 0
137 -136 0
28 32 31 30 29 27 26 -123 -122 -73 -72 136 0
23 22 21 20 19 18 17 -120 -119 -68 -67 135 0
13 9 7 8 12 11 10 -117 -116 -63 -62 134 0
133 -130 0
133 -131 0
133 -132 0
32 30 29 54 43 44 42 -83 -82 -103 -102 132 0
23 21 20 39 52 40 41 -100 -80 -79 -99 131 0
13 11 10 35 37 36 50 -97 -77 -76 -96 130 0
129 -126 0
129 -127 0
129 -128 0
32 31 30 29 27 43 42 -73 -72 -103 -102 128 0
23 22 21 20 18 39 40 -100 -68 -67 -99 127 0
13 8 12 11 10 35 36 -97 -63 -62 -96 126 0
125 -118 0
125 -121 0
125 -124 0
28 32 31 30 54 58 42 -123 -122 -93 -92 124 0
123 34 0
123 14 0
122 33 0
122 -14 0
23 22 21 19 39 52 57 -120 -119 -90 -89 121 0
120 14 0
120 25 0
119 24 0
119 -14 0
13 9 12 11 35 56 50 -117 -116 -87 -86 118 0
117 14 0
117 16 0
116 15 0
116 -14 0
115 -108 0
115 -111 0
115 -114 0
32 31 30 54 43 58 42 -113 -112 -93 -92 114 0
113 33 0
113 -38 0
112 34 0
112 38 0
23 22 21 39 52 40 57 -110 -109 -90 -89 111 0
110 38 0
110 25 0
109 24 0
109 -38 0
13 12 11 35 36 56 50 -107 -106 -87 -86 108 0
107 15 0
107 -38 0
106 38 0
106 16 0
105 -98 0
105 -101 0
105 -104 0
31 30 54 55 43 58 42 -103 -102 -93 -92 104 0
103 45 0
103 34 0
102 -45 0
102 33 0
22 21 39 53 52 40 57 -100 -99 -90 -89 101 0
100 45 0
100 25 0
99 -45 0
99 24 0
12 11 35 36 56 50 51 -97 -96 -87 -86 98 0
97 45 0
97 16 0
96 -45 0
96 15 0
95 -88 0
95 -91 0
95 -94 0
32 31 26 54 49 43 58 -71 -70 -93 -92 94 0
93 47 0
93 6 0
92 -47 0
92 3 0
23 22 17 52 48 40 57 -66 -65 -90 -89 91 0
90 47 0
90 4 0
89 -47 0
89 2 0
13 7 12 36 56 50 46 -61 -60 -87 -86 88 0
87 47 0
87 5 0
86 -47 0
86 1 0
85 -78 0
85 -81 0
85 -84 0
32 31 29 54 49 43 42 -83 -82 -71 -70 84 0
83 38 0
83 6 0
82 3 0
82 -38 0
23 22 20 39 52 48 40 -80 -79 -66 -65 81 0
80 2 0
80 -38 0
79 38 0
79 4 0
13 12 10 35 36 50 46 -77 -76 -61 -60 78 0
77 1 0
77 -38 0
76 38 0
76 5 0
75 -64 0
75 -69 0
75 -74 0
32 31 29 27 49 43 42 -73 -72 -71 -70 74 0
73 14 0
73 6 0
72 3 0
72 -14 0
71 47 0
71 34 0
70 -47 0
70 33 0
23 22 20 18 39 48 40 -68 -67 -66 -65 69 0
68 14 0
68 4 0
67 2 0
67 -14 0
66 47 0
66 25 0
65 -47 0
65 24 0
13 8 12 10 35 36 46 -63 -62 -61 -60 64 0
63 14 0
63 5 0
62 1 0
62 -14 0
61 47 0
61 16 0
60 -47 0
60 15 0
59 -47 0
59 -45 0
59 -38 0
59 -14 0
